c File: flat50_3_0.col
c
c SOURCE: Joseph Culberson (joe@cs.ualberta.ca)
c DESCRIPTION: Quasi-random coloring problem
c              generated with flatness = 0
c                             probability = 0.139
c                             known coloring = 3
c                             random seed = 1106
c              Creation Date:  Tue Jun  9 12:01:16 1998
c Maximum degree = 8 Minimum degree = 1
c p edge 50 115
c cnf created by edge2cnf
p cnf 150 545
-1 -2 0
-1 -3 0
-2 -3 0
1 2 3 0
-4 -5 0
-4 -6 0
-5 -6 0
4 5 6 0
-7 -8 0
-7 -9 0
-8 -9 0
7 8 9 0
-10 -11 0
-10 -12 0
-11 -12 0
10 11 12 0
-13 -14 0
-13 -15 0
-14 -15 0
13 14 15 0
-16 -17 0
-16 -18 0
-17 -18 0
16 17 18 0
-19 -20 0
-19 -21 0
-20 -21 0
19 20 21 0
-22 -23 0
-22 -24 0
-23 -24 0
22 23 24 0
-25 -26 0
-25 -27 0
-26 -27 0
25 26 27 0
-28 -29 0
-28 -30 0
-29 -30 0
28 29 30 0
-31 -32 0
-31 -33 0
-32 -33 0
31 32 33 0
-34 -35 0
-34 -36 0
-35 -36 0
34 35 36 0
-37 -38 0
-37 -39 0
-38 -39 0
37 38 39 0
-40 -41 0
-40 -42 0
-41 -42 0
40 41 42 0
-43 -44 0
-43 -45 0
-44 -45 0
43 44 45 0
-46 -47 0
-46 -48 0
-47 -48 0
46 47 48 0
-49 -50 0
-49 -51 0
-50 -51 0
49 50 51 0
-52 -53 0
-52 -54 0
-53 -54 0
52 53 54 0
-55 -56 0
-55 -57 0
-56 -57 0
55 56 57 0
-58 -59 0
-58 -60 0
-59 -60 0
58 59 60 0
-61 -62 0
-61 -63 0
-62 -63 0
61 62 63 0
-64 -65 0
-64 -66 0
-65 -66 0
64 65 66 0
-67 -68 0
-67 -69 0
-68 -69 0
67 68 69 0
-70 -71 0
-70 -72 0
-71 -72 0
70 71 72 0
-73 -74 0
-73 -75 0
-74 -75 0
73 74 75 0
-76 -77 0
-76 -78 0
-77 -78 0
76 77 78 0
-79 -80 0
-79 -81 0
-80 -81 0
79 80 81 0
-82 -83 0
-82 -84 0
-83 -84 0
82 83 84 0
-85 -86 0
-85 -87 0
-86 -87 0
85 86 87 0
-88 -89 0
-88 -90 0
-89 -90 0
88 89 90 0
-91 -92 0
-91 -93 0
-92 -93 0
91 92 93 0
-94 -95 0
-94 -96 0
-95 -96 0
94 95 96 0
-97 -98 0
-97 -99 0
-98 -99 0
97 98 99 0
-100 -101 0
-100 -102 0
-101 -102 0
100 101 102 0
-103 -104 0
-103 -105 0
-104 -105 0
103 104 105 0
-106 -107 0
-106 -108 0
-107 -108 0
106 107 108 0
-109 -110 0
-109 -111 0
-110 -111 0
109 110 111 0
-112 -113 0
-112 -114 0
-113 -114 0
112 113 114 0
-115 -116 0
-115 -117 0
-116 -117 0
115 116 117 0
-118 -119 0
-118 -120 0
-119 -120 0
118 119 120 0
-121 -122 0
-121 -123 0
-122 -123 0
121 122 123 0
-124 -125 0
-124 -126 0
-125 -126 0
124 125 126 0
-127 -128 0
-127 -129 0
-128 -129 0
127 128 129 0
-130 -131 0
-130 -132 0
-131 -132 0
130 131 132 0
-133 -134 0
-133 -135 0
-134 -135 0
133 134 135 0
-136 -137 0
-136 -138 0
-137 -138 0
136 137 138 0
-139 -140 0
-139 -141 0
-140 -141 0
139 140 141 0
-142 -143 0
-142 -144 0
-143 -144 0
142 143 144 0
-145 -146 0
-145 -147 0
-146 -147 0
145 146 147 0
-148 -149 0
-148 -150 0
-149 -150 0
148 149 150 0
-52 -1 0
-53 -2 0
-54 -3 0
-94 -1 0
-95 -2 0
-96 -3 0
-97 -1 0
-98 -2 0
-99 -3 0
-115 -1 0
-116 -2 0
-117 -3 0
-121 -1 0
-122 -2 0
-123 -3 0
-142 -1 0
-143 -2 0
-144 -3 0
-121 -4 0
-122 -5 0
-123 -6 0
-130 -4 0
-131 -5 0
-132 -6 0
-55 -7 0
-56 -8 0
-57 -9 0
-76 -7 0
-77 -8 0
-78 -9 0
-61 -10 0
-62 -11 0
-63 -12 0
-67 -10 0
-68 -11 0
-69 -12 0
-82 -10 0
-83 -11 0
-84 -12 0
-124 -10 0
-125 -11 0
-126 -12 0
-148 -10 0
-149 -11 0
-150 -12 0
-103 -13 0
-104 -14 0
-105 -15 0
-52 -16 0
-53 -17 0
-54 -18 0
-76 -16 0
-77 -17 0
-78 -18 0
-82 -16 0
-83 -17 0
-84 -18 0
-100 -16 0
-101 -17 0
-102 -18 0
-121 -16 0
-122 -17 0
-123 -18 0
-130 -16 0
-131 -17 0
-132 -18 0
-139 -16 0
-140 -17 0
-141 -18 0
-148 -16 0
-149 -17 0
-150 -18 0
-58 -19 0
-59 -20 0
-60 -21 0
-70 -19 0
-71 -20 0
-72 -21 0
-85 -19 0
-86 -20 0
-87 -21 0
-94 -19 0
-95 -20 0
-96 -21 0
-106 -19 0
-107 -20 0
-108 -21 0
-118 -19 0
-119 -20 0
-120 -21 0
-130 -19 0
-131 -20 0
-132 -21 0
-148 -19 0
-149 -20 0
-150 -21 0
-52 -22 0
-53 -23 0
-54 -24 0
-73 -22 0
-74 -23 0
-75 -24 0
-79 -22 0
-80 -23 0
-81 -24 0
-106 -22 0
-107 -23 0
-108 -24 0
-109 -22 0
-110 -23 0
-111 -24 0
-148 -22 0
-149 -23 0
-150 -24 0
-58 -25 0
-59 -26 0
-60 -27 0
-82 -25 0
-83 -26 0
-84 -27 0
-100 -25 0
-101 -26 0
-102 -27 0
-139 -25 0
-140 -26 0
-141 -27 0
-85 -28 0
-86 -29 0
-87 -30 0
-106 -28 0
-107 -29 0
-108 -30 0
-127 -28 0
-128 -29 0
-129 -30 0
-145 -28 0
-146 -29 0
-147 -30 0
-52 -31 0
-53 -32 0
-54 -33 0
-76 -31 0
-77 -32 0
-78 -33 0
-88 -31 0
-89 -32 0
-90 -33 0
-118 -31 0
-119 -32 0
-120 -33 0
-139 -31 0
-140 -32 0
-141 -33 0
-58 -34 0
-59 -35 0
-60 -36 0
-79 -34 0
-80 -35 0
-81 -36 0
-85 -34 0
-86 -35 0
-87 -36 0
-100 -34 0
-101 -35 0
-102 -36 0
-103 -34 0
-104 -35 0
-105 -36 0
-133 -34 0
-134 -35 0
-135 -36 0
-70 -37 0
-71 -38 0
-72 -39 0
-88 -37 0
-89 -38 0
-90 -39 0
-112 -37 0
-113 -38 0
-114 -39 0
-112 -40 0
-113 -41 0
-114 -42 0
-124 -40 0
-125 -41 0
-126 -42 0
-133 -40 0
-134 -41 0
-135 -42 0
-136 -40 0
-137 -41 0
-138 -42 0
-70 -43 0
-71 -44 0
-72 -45 0
-76 -43 0
-77 -44 0
-78 -45 0
-79 -43 0
-80 -44 0
-81 -45 0
-115 -43 0
-116 -44 0
-117 -45 0
-133 -43 0
-134 -44 0
-135 -45 0
-67 -46 0
-68 -47 0
-69 -48 0
-109 -46 0
-110 -47 0
-111 -48 0
-124 -46 0
-125 -47 0
-126 -48 0
-133 -46 0
-134 -47 0
-135 -48 0
-55 -49 0
-56 -50 0
-57 -51 0
-67 -49 0
-68 -50 0
-69 -51 0
-79 -49 0
-80 -50 0
-81 -51 0
-100 -49 0
-101 -50 0
-102 -51 0
-136 -49 0
-137 -50 0
-138 -51 0
-115 -52 0
-116 -53 0
-117 -54 0
-127 -52 0
-128 -53 0
-129 -54 0
-148 -55 0
-149 -56 0
-150 -57 0
-115 -58 0
-116 -59 0
-117 -60 0
-115 -61 0
-116 -62 0
-117 -63 0
-136 -61 0
-137 -62 0
-138 -63 0
-109 -64 0
-110 -65 0
-111 -66 0
-127 -64 0
-128 -65 0
-129 -66 0
-130 -64 0
-131 -65 0
-132 -66 0
-121 -67 0
-122 -68 0
-123 -69 0
-148 -67 0
-149 -68 0
-150 -69 0
-109 -70 0
-110 -71 0
-111 -72 0
-139 -70 0
-140 -71 0
-141 -72 0
-142 -70 0
-143 -71 0
-144 -72 0
-106 -73 0
-107 -74 0
-108 -75 0
-109 -73 0
-110 -74 0
-111 -75 0
-118 -76 0
-119 -77 0
-120 -78 0
-124 -76 0
-125 -77 0
-126 -78 0
-142 -76 0
-143 -77 0
-144 -78 0
-139 -79 0
-140 -80 0
-141 -81 0
-118 -82 0
-119 -83 0
-120 -84 0
-142 -82 0
-143 -83 0
-144 -84 0
-145 -82 0
-146 -83 0
-147 -84 0
-112 -85 0
-113 -86 0
-114 -87 0
-130 -85 0
-131 -86 0
-132 -87 0
-136 -85 0
-137 -86 0
-138 -87 0
-148 -85 0
-149 -86 0
-150 -87 0
-124 -88 0
-125 -89 0
-126 -90 0
-139 -88 0
-140 -89 0
-141 -90 0
-145 -88 0
-146 -89 0
-147 -90 0
-112 -91 0
-113 -92 0
-114 -93 0
-118 -91 0
-119 -92 0
-120 -93 0
-127 -91 0
-128 -92 0
-129 -93 0
-133 -91 0
-134 -92 0
-135 -93 0
-115 -94 0
-116 -95 0
-117 -96 0
-127 -97 0
-128 -98 0
-129 -99 0
-124 -100 0
-125 -101 0
-126 -102 0
